n = 28;
k = 3;
roles = [
{m, g},
{g, m},
{d, g},
{d, g},
{m, f},
{d, m},
{f, m},
{m, f},
{f, m},
{g, d},
{g, m},
{f, g},
{d, g},
{m, g},
{d, m},
{f, d},
{f, m},
{f, d},
{m, d},
{f, m},
{f, d},
{f, g},
{d, m},
{d, g},
{d, f},
{d, f},
{m, d},
{d, g}
];
num_pairs = 3;
player1 = [24, 8, 17];
player2 = [21, 20, 10];
